n = 27;
lu = [|-137, 375
      |-668, 522
      |544, 609
      |-299, -203
      |-630, 84
      |41, 584
      |-563, -455
      |-714, 216
      |-233, 340
      |-677, -581
      |-402, 498
      |93, 358
      |-16, 611
      |-591, 367
      |-681, 93
      |-220, 423
      |-156, 647
      |149, 429
      |-534, 651
      |-159, 579
      |-501, 422
      |283, 527
      |-465, -96
      |-97, -91
      |-213, 309
      |-565, -446
      |-231, 703|];
